-60 -67 0
10 11 -67 0
11 -67 0
d 10 11 -67 0
12 13 -11 0
13 -67 0
-67 0
14 0
-11 0
3 0
19 0
59 0
-10 0
-56 0
-7 0
-6 0
17 0
60 0
2 0
18 0
4 0
64 0
63 0
48 0
49 0
15 0
62 0
58 0
13 0
-55 0
-57 0
-9 0
-5 0
-40 0
-41 0
-42 0
-51 0
-66 0
-52 0
-53 0
-20 0
-21 0
-22 0
-24 0
-25 0
-26 0
47 0
65 0
50 0
0
